2025-04-29 15:01:00,997 - INFO - --- optimisation run for ERCOT ---
2025-04-29 15:01:01,000 - INFO - Loaded Price_hourly.csv (8760 rows)
2025-04-29 15:01:01,007 - INFO - Loaded Price_ANS_hourly.csv (8760 rows)
2025-04-29 15:01:01,008 - INFO - Loaded sys_data_advanced.csv (45 rows)
2025-04-29 15:01:01,008 - INFO - Creating STANDARDIZED model for ERCOT...
2025-04-29 15:01:01,008 - INFO - Loading parameters...
2025-04-29 15:01:01,012 - WARNING - Implicitly replacing the Component attribute pTurbine_min (type=<class 'pyomo.core.base.param.ScalarParam'>) on block Optimize_Profit_Standardized_ERCOT with a new Component (type=<class 'pyomo.core.base.param.ScalarParam'>).
This is usually indicative of a modelling error.
To avoid this warning, use block.del_component() and block.add_component().
2025-04-29 15:01:01,012 - WARNING - Implicitly replacing the Component attribute pTurbine_max (type=<class 'pyomo.core.base.param.ScalarParam'>) on block Optimize_Profit_Standardized_ERCOT with a new Component (type=<class 'pyomo.core.base.param.ScalarParam'>).
This is usually indicative of a modelling error.
To avoid this warning, use block.del_component() and block.add_component().
2025-04-29 15:01:01,012 - INFO - Successfully loaded and enabled non-linear turbine efficiency.
2025-04-29 15:01:01,012 - INFO - Loaded electrolyzer piecewise parameters (ke, kt). Ensure build_piecewise_efficiency_constraints uses them correctly.
2025-04-29 15:01:01,387 - INFO - Defining variables...
2025-04-29 15:01:01,646 - INFO - Defining constraints...
2025-04-29 15:01:02,249 - INFO - Added Linearized qSteam_Electrolyzer Ramp Constraint.
2025-04-29 15:01:02,249 - WARNING - Electrolyzer efficiency relationship (pElectrolyzer, mHydrogenProduced, qSteam_Electrolyzer) is NOT YET CONSTRAINED. Implement 'build_piecewise_efficiency_constraints'. Using simple fallback.
2025-04-29 15:01:02,445 - INFO - Building piece‑wise constraints for TurbinePower
2025-04-29 15:01:02,876 - INFO - Applying non-linear turbine efficiency constraints.
2025-04-29 15:01:05,248 - INFO - Defining objective function (Maximize Profit)...
2025-04-29 15:01:05,799 - INFO - Standardized model created successfully.
2025-04-29 15:01:05,812 - INFO - Set parameter Username
2025-04-29 15:01:05,817 - INFO - Academic license - for non-commercial use only - expires 2026-04-25
2025-04-29 15:01:13,624 - INFO - Read LP format model from file /tmp/tmp_bq10wow.pyomo.lp
2025-04-29 15:01:13,624 - INFO - Reading time = 0.64 seconds
2025-04-29 15:01:13,624 - INFO - x1: 350388 rows, 324116 columns, 1051159 nonzeros
2025-04-29 15:01:13,624 - INFO - Gurobi Optimizer version 12.0.1 build v12.0.1rc0 (linux64 - "Ubuntu 22.04.5 LTS")
2025-04-29 15:01:13,624 - INFO - 
2025-04-29 15:01:13,624 - INFO - CPU model: AMD Ryzen Threadripper PRO 5995WX 64-Cores, instruction set [SSE2|AVX|AVX2]
2025-04-29 15:01:13,624 - INFO - Thread count: 64 physical cores, 128 logical processors, using up to 32 threads
2025-04-29 15:01:13,624 - INFO - 
2025-04-29 15:01:13,624 - INFO - Optimize a model with 350388 rows, 324116 columns and 1051159 nonzeros
2025-04-29 15:01:13,636 - INFO - Model fingerprint: 0xf6fb6cf9
2025-04-29 15:01:13,636 - INFO - Model has 8760 quadratic constraints
2025-04-29 15:01:13,636 - INFO - Model has 8760 SOS constraints
2025-04-29 15:01:13,636 - INFO - Variable types: 297836 continuous, 26280 integer (26280 binary)
2025-04-29 15:01:13,638 - INFO - Coefficient statistics:
2025-04-29 15:01:13,638 - INFO -   Matrix range     [2e-02, 2e+03]
2025-04-29 15:01:13,638 - INFO -   QMatrix range    [2e-07, 2e-07]
2025-04-29 15:01:13,638 - INFO -   QLMatrix range   [1e-02, 1e+00]
2025-04-29 15:01:13,638 - INFO -   Objective range  [2e-04, 5e+02]
2025-04-29 15:01:13,638 - INFO -   Bounds range     [1e+00, 5e+04]
2025-04-29 15:01:13,638 - INFO -   RHS range        [1e+00, 5e+04]
2025-04-29 15:01:15,294 - INFO - Presolve removed 262810 rows and 220002 columns
2025-04-29 15:01:15,294 - INFO - Presolve time: 1.65s
2025-04-29 15:01:15,303 - INFO - Presolved: 122578 rows, 112864 columns, 366764 nonzeros
2025-04-29 15:01:15,372 - INFO - Variable types: 95345 continuous, 17519 integer (17519 binary)
2025-04-29 15:01:15,692 - INFO - Deterministic concurrent LP optimizer: primal and dual simplex
2025-04-29 15:01:15,693 - INFO - Showing primal log only...
2025-04-29 15:01:15,693 - INFO - 
2025-04-29 15:01:15,902 - INFO - Concurrent spin time: 0.02s
2025-04-29 15:01:15,902 - INFO - 
2025-04-29 15:01:15,902 - INFO - Solved with dual simplex
2025-04-29 15:01:15,950 - INFO - 
2025-04-29 15:01:15,950 - INFO - Root relaxation: objective 3.365638e+08, 26278 iterations, 0.41 seconds (0.39 work units)
2025-04-29 15:01:16,040 - INFO - 
2025-04-29 15:01:16,040 - INFO -     Nodes    |    Current Node    |     Objective Bounds      |     Work
2025-04-29 15:01:16,040 - INFO -  Expl Unexpl |  Obj  Depth IntInf | Incumbent    BestBd   Gap | It/Node Time
2025-04-29 15:01:16,040 - INFO - 
2025-04-29 15:01:16,041 - INFO -      0     0 3.3656e+08    0    2          - 3.3656e+08      -     -    2s
2025-04-29 15:01:16,697 - INFO - H    0     0                    3.365638e+08 3.3656e+08  0.00%     -    3s
2025-04-29 15:01:16,783 - INFO - 
2025-04-29 15:01:16,783 - INFO - Explored 1 nodes (26278 simplex iterations) in 3.16 seconds (3.83 work units)
2025-04-29 15:01:16,783 - INFO - Thread count was 32 (of 128 available processors)
2025-04-29 15:01:16,783 - INFO - 
2025-04-29 15:01:16,783 - INFO - Solution count 1: 3.36564e+08 
2025-04-29 15:01:16,783 - INFO - 
2025-04-29 15:01:16,783 - INFO - Optimal solution found (tolerance 1.00e-04)
2025-04-29 15:01:16,789 - INFO - Best objective 3.365637919906e+08, best bound 3.365637999257e+08, gap 0.0000%
2025-04-29 15:01:18,428 - INFO - Extracting results for ERCOT...
2025-04-29 15:01:18,541 - INFO - Results saved to ./Results_Standardized/ERCOT_Hourly_Results_Standardized.csv
2025-04-29 15:01:18,770 - INFO - Optimisation finished – Profit = $336563791.99
2025-04-29 15:01:18,771 - INFO - Log saved to logs/ERCOT_optimization_standardized.log
